SAT
-22 -44 -97 -1 17 52 64 -70 -93 -90 30 -37 -60 14 -88 79 -18 -8 82 -12 -89 -9 2 -23 -59 -10 62 -91 58 -33 31 77 -36 -100 40 -66 -3 -24 -47 76 -27 -49 -25 65 34 -87 -32 94 -96 48 5 38 -78 35 -50 74 -11 75 95 28 -20 99 -67 -57 -85 -7 43 92 -83 15 26 -73 -19 -6 63 -84 54 53 80 -51 -46 81 39 13 -16 -4 -71 -45 41 -42 61 -21 -29 -55 -98 72 -68 86 56 69 0
